p cnf 70 757
-11 -61 0
-12 -62 0
-13 -63 0
-14 -64 0
-15 -65 0
-16 -66 0
-17 -67 0
-18 -68 0
-19 -69 0
-20 -70 0
-31 -51 0
-32 -52 0
-33 -53 0
-34 -54 0
-35 -55 0
-36 -56 0
-37 -57 0
-38 -58 0
-39 -59 0
-40 -60 0
-21 -61 0
-22 -62 0
-23 -63 0
-24 -64 0
-25 -65 0
-26 -66 0
-27 -67 0
-28 -68 0
-29 -69 0
-30 -70 0
-1 -41 0
-2 -42 0
-3 -43 0
-4 -44 0
-5 -45 0
-6 -46 0
-7 -47 0
-8 -48 0
-9 -49 0
-10 -50 0
-1 -51 0
-2 -52 0
-3 -53 0
-4 -54 0
-5 -55 0
-6 -56 0
-7 -57 0
-8 -58 0
-9 -59 0
-10 -60 0
-1 -61 0
-2 -62 0
-3 -63 0
-4 -64 0
-5 -65 0
-6 -66 0
-7 -67 0
-8 -68 0
-9 -69 0
-10 -70 0
-51 -61 0
-52 -62 0
-53 -63 0
-54 -64 0
-55 -65 0
-56 -66 0
-57 -67 0
-58 -68 0
-59 -69 0
-60 -70 0
-41 -51 0
-42 -52 0
-43 -53 0
-44 -54 0
-45 -55 0
-46 -56 0
-47 -57 0
-48 -58 0
-49 -59 0
-50 -60 0
-31 -41 0
-32 -42 0
-33 -43 0
-34 -44 0
-35 -45 0
-36 -46 0
-37 -47 0
-38 -48 0
-39 -49 0
-40 -50 0
-21 -31 0
-22 -32 0
-23 -33 0
-24 -34 0
-25 -35 0
-26 -36 0
-27 -37 0
-28 -38 0
-29 -39 0
-30 -40 0
-11 -21 0
-12 -22 0
-13 -23 0
-14 -24 0
-15 -25 0
-16 -26 0
-17 -27 0
-18 -28 0
-19 -29 0
-20 -30 0
-1 -11 0
-2 -12 0
-3 -13 0
-4 -14 0
-5 -15 0
-6 -16 0
-7 -17 0
-8 -18 0
-9 -19 0
-10 -20 0
61 62 63 64 65 66 67 68 69 70 0
-61 -61 0
-61 -62 0
-61 -63 0
-61 -64 0
-61 -65 0
-61 -66 0
-61 -67 0
-61 -68 0
-61 -69 0
-61 -70 0
-62 -61 0
-62 -62 0
-62 -63 0
-62 -64 0
-62 -65 0
-62 -66 0
-62 -67 0
-62 -68 0
-62 -69 0
-62 -70 0
-63 -61 0
-63 -62 0
-63 -63 0
-63 -64 0
-63 -65 0
-63 -66 0
-63 -67 0
-63 -68 0
-63 -69 0
-63 -70 0
-64 -61 0
-64 -62 0
-64 -63 0
-64 -64 0
-64 -65 0
-64 -66 0
-64 -67 0
-64 -68 0
-64 -69 0
-64 -70 0
-65 -61 0
-65 -62 0
-65 -63 0
-65 -64 0
-65 -65 0
-65 -66 0
-65 -67 0
-65 -68 0
-65 -69 0
-65 -70 0
-66 -61 0
-66 -62 0
-66 -63 0
-66 -64 0
-66 -65 0
-66 -66 0
-66 -67 0
-66 -68 0
-66 -69 0
-66 -70 0
-67 -61 0
-67 -62 0
-67 -63 0
-67 -64 0
-67 -65 0
-67 -66 0
-67 -67 0
-67 -68 0
-67 -69 0
-67 -70 0
-68 -61 0
-68 -62 0
-68 -63 0
-68 -64 0
-68 -65 0
-68 -66 0
-68 -67 0
-68 -68 0
-68 -69 0
-68 -70 0
-69 -61 0
-69 -62 0
-69 -63 0
-69 -64 0
-69 -65 0
-69 -66 0
-69 -67 0
-69 -68 0
-69 -69 0
-69 -70 0
51 52 53 54 55 56 57 58 59 60 0
-51 -51 0
-51 -52 0
-51 -53 0
-51 -54 0
-51 -55 0
-51 -56 0
-51 -57 0
-51 -58 0
-51 -59 0
-51 -60 0
-52 -51 0
-52 -52 0
-52 -53 0
-52 -54 0
-52 -55 0
-52 -56 0
-52 -57 0
-52 -58 0
-52 -59 0
-52 -60 0
-53 -51 0
-53 -52 0
-53 -53 0
-53 -54 0
-53 -55 0
-53 -56 0
-53 -57 0
-53 -58 0
-53 -59 0
-53 -60 0
-54 -51 0
-54 -52 0
-54 -53 0
-54 -54 0
-54 -55 0
-54 -56 0
-54 -57 0
-54 -58 0
-54 -59 0
-54 -60 0
-55 -51 0
-55 -52 0
-55 -53 0
-55 -54 0
-55 -55 0
-55 -56 0
-55 -57 0
-55 -58 0
-55 -59 0
-55 -60 0
-56 -51 0
-56 -52 0
-56 -53 0
-56 -54 0
-56 -55 0
-56 -56 0
-56 -57 0
-56 -58 0
-56 -59 0
-56 -60 0
-57 -51 0
-57 -52 0
-57 -53 0
-57 -54 0
-57 -55 0
-57 -56 0
-57 -57 0
-57 -58 0
-57 -59 0
-57 -60 0
-58 -51 0
-58 -52 0
-58 -53 0
-58 -54 0
-58 -55 0
-58 -56 0
-58 -57 0
-58 -58 0
-58 -59 0
-58 -60 0
-59 -51 0
-59 -52 0
-59 -53 0
-59 -54 0
-59 -55 0
-59 -56 0
-59 -57 0
-59 -58 0
-59 -59 0
-59 -60 0
41 42 43 44 45 46 47 48 49 50 0
-41 -41 0
-41 -42 0
-41 -43 0
-41 -44 0
-41 -45 0
-41 -46 0
-41 -47 0
-41 -48 0
-41 -49 0
-41 -50 0
-42 -41 0
-42 -42 0
-42 -43 0
-42 -44 0
-42 -45 0
-42 -46 0
-42 -47 0
-42 -48 0
-42 -49 0
-42 -50 0
-43 -41 0
-43 -42 0
-43 -43 0
-43 -44 0
-43 -45 0
-43 -46 0
-43 -47 0
-43 -48 0
-43 -49 0
-43 -50 0
-44 -41 0
-44 -42 0
-44 -43 0
-44 -44 0
-44 -45 0
-44 -46 0
-44 -47 0
-44 -48 0
-44 -49 0
-44 -50 0
-45 -41 0
-45 -42 0
-45 -43 0
-45 -44 0
-45 -45 0
-45 -46 0
-45 -47 0
-45 -48 0
-45 -49 0
-45 -50 0
-46 -41 0
-46 -42 0
-46 -43 0
-46 -44 0
-46 -45 0
-46 -46 0
-46 -47 0
-46 -48 0
-46 -49 0
-46 -50 0
-47 -41 0
-47 -42 0
-47 -43 0
-47 -44 0
-47 -45 0
-47 -46 0
-47 -47 0
-47 -48 0
-47 -49 0
-47 -50 0
-48 -41 0
-48 -42 0
-48 -43 0
-48 -44 0
-48 -45 0
-48 -46 0
-48 -47 0
-48 -48 0
-48 -49 0
-48 -50 0
-49 -41 0
-49 -42 0
-49 -43 0
-49 -44 0
-49 -45 0
-49 -46 0
-49 -47 0
-49 -48 0
-49 -49 0
-49 -50 0
31 32 33 34 35 36 37 38 39 40 0
-31 -31 0
-31 -32 0
-31 -33 0
-31 -34 0
-31 -35 0
-31 -36 0
-31 -37 0
-31 -38 0
-31 -39 0
-31 -40 0
-32 -31 0
-32 -32 0
-32 -33 0
-32 -34 0
-32 -35 0
-32 -36 0
-32 -37 0
-32 -38 0
-32 -39 0
-32 -40 0
-33 -31 0
-33 -32 0
-33 -33 0
-33 -34 0
-33 -35 0
-33 -36 0
-33 -37 0
-33 -38 0
-33 -39 0
-33 -40 0
-34 -31 0
-34 -32 0
-34 -33 0
-34 -34 0
-34 -35 0
-34 -36 0
-34 -37 0
-34 -38 0
-34 -39 0
-34 -40 0
-35 -31 0
-35 -32 0
-35 -33 0
-35 -34 0
-35 -35 0
-35 -36 0
-35 -37 0
-35 -38 0
-35 -39 0
-35 -40 0
-36 -31 0
-36 -32 0
-36 -33 0
-36 -34 0
-36 -35 0
-36 -36 0
-36 -37 0
-36 -38 0
-36 -39 0
-36 -40 0
-37 -31 0
-37 -32 0
-37 -33 0
-37 -34 0
-37 -35 0
-37 -36 0
-37 -37 0
-37 -38 0
-37 -39 0
-37 -40 0
-38 -31 0
-38 -32 0
-38 -33 0
-38 -34 0
-38 -35 0
-38 -36 0
-38 -37 0
-38 -38 0
-38 -39 0
-38 -40 0
-39 -31 0
-39 -32 0
-39 -33 0
-39 -34 0
-39 -35 0
-39 -36 0
-39 -37 0
-39 -38 0
-39 -39 0
-39 -40 0
21 22 23 24 25 26 27 28 29 30 0
-21 -21 0
-21 -22 0
-21 -23 0
-21 -24 0
-21 -25 0
-21 -26 0
-21 -27 0
-21 -28 0
-21 -29 0
-21 -30 0
-22 -21 0
-22 -22 0
-22 -23 0
-22 -24 0
-22 -25 0
-22 -26 0
-22 -27 0
-22 -28 0
-22 -29 0
-22 -30 0
-23 -21 0
-23 -22 0
-23 -23 0
-23 -24 0
-23 -25 0
-23 -26 0
-23 -27 0
-23 -28 0
-23 -29 0
-23 -30 0
-24 -21 0
-24 -22 0
-24 -23 0
-24 -24 0
-24 -25 0
-24 -26 0
-24 -27 0
-24 -28 0
-24 -29 0
-24 -30 0
-25 -21 0
-25 -22 0
-25 -23 0
-25 -24 0
-25 -25 0
-25 -26 0
-25 -27 0
-25 -28 0
-25 -29 0
-25 -30 0
-26 -21 0
-26 -22 0
-26 -23 0
-26 -24 0
-26 -25 0
-26 -26 0
-26 -27 0
-26 -28 0
-26 -29 0
-26 -30 0
-27 -21 0
-27 -22 0
-27 -23 0
-27 -24 0
-27 -25 0
-27 -26 0
-27 -27 0
-27 -28 0
-27 -29 0
-27 -30 0
-28 -21 0
-28 -22 0
-28 -23 0
-28 -24 0
-28 -25 0
-28 -26 0
-28 -27 0
-28 -28 0
-28 -29 0
-28 -30 0
-29 -21 0
-29 -22 0
-29 -23 0
-29 -24 0
-29 -25 0
-29 -26 0
-29 -27 0
-29 -28 0
-29 -29 0
-29 -30 0
11 12 13 14 15 16 17 18 19 20 0
-11 -11 0
-11 -12 0
-11 -13 0
-11 -14 0
-11 -15 0
-11 -16 0
-11 -17 0
-11 -18 0
-11 -19 0
-11 -20 0
-12 -11 0
-12 -12 0
-12 -13 0
-12 -14 0
-12 -15 0
-12 -16 0
-12 -17 0
-12 -18 0
-12 -19 0
-12 -20 0
-13 -11 0
-13 -12 0
-13 -13 0
-13 -14 0
-13 -15 0
-13 -16 0
-13 -17 0
-13 -18 0
-13 -19 0
-13 -20 0
-14 -11 0
-14 -12 0
-14 -13 0
-14 -14 0
-14 -15 0
-14 -16 0
-14 -17 0
-14 -18 0
-14 -19 0
-14 -20 0
-15 -11 0
-15 -12 0
-15 -13 0
-15 -14 0
-15 -15 0
-15 -16 0
-15 -17 0
-15 -18 0
-15 -19 0
-15 -20 0
-16 -11 0
-16 -12 0
-16 -13 0
-16 -14 0
-16 -15 0
-16 -16 0
-16 -17 0
-16 -18 0
-16 -19 0
-16 -20 0
-17 -11 0
-17 -12 0
-17 -13 0
-17 -14 0
-17 -15 0
-17 -16 0
-17 -17 0
-17 -18 0
-17 -19 0
-17 -20 0
-18 -11 0
-18 -12 0
-18 -13 0
-18 -14 0
-18 -15 0
-18 -16 0
-18 -17 0
-18 -18 0
-18 -19 0
-18 -20 0
-19 -11 0
-19 -12 0
-19 -13 0
-19 -14 0
-19 -15 0
-19 -16 0
-19 -17 0
-19 -18 0
-19 -19 0
-19 -20 0
1 2 3 4 5 6 7 8 9 10 0
-1 -1 0
-1 -2 0
-1 -3 0
-1 -4 0
-1 -5 0
-1 -6 0
-1 -7 0
-1 -8 0
-1 -9 0
-1 -10 0
-2 -1 0
-2 -2 0
-2 -3 0
-2 -4 0
-2 -5 0
-2 -6 0
-2 -7 0
-2 -8 0
-2 -9 0
-2 -10 0
-3 -1 0
-3 -2 0
-3 -3 0
-3 -4 0
-3 -5 0
-3 -6 0
-3 -7 0
-3 -8 0
-3 -9 0
-3 -10 0
-4 -1 0
-4 -2 0
-4 -3 0
-4 -4 0
-4 -5 0
-4 -6 0
-4 -7 0
-4 -8 0
-4 -9 0
-4 -10 0
-5 -1 0
-5 -2 0
-5 -3 0
-5 -4 0
-5 -5 0
-5 -6 0
-5 -7 0
-5 -8 0
-5 -9 0
-5 -10 0
-6 -1 0
-6 -2 0
-6 -3 0
-6 -4 0
-6 -5 0
-6 -6 0
-6 -7 0
-6 -8 0
-6 -9 0
-6 -10 0
-7 -1 0
-7 -2 0
-7 -3 0
-7 -4 0
-7 -5 0
-7 -6 0
-7 -7 0
-7 -8 0
-7 -9 0
-7 -10 0
-8 -1 0
-8 -2 0
-8 -3 0
-8 -4 0
-8 -5 0
-8 -6 0
-8 -7 0
-8 -8 0
-8 -9 0
-8 -10 0
-9 -1 0
-9 -2 0
-9 -3 0
-9 -4 0
-9 -5 0
-9 -6 0
-9 -7 0
-9 -8 0
-9 -9 0
-9 -10 0
